<?xml version = "1.0" encoding="UTF-8" standalone="yes"?>
<CPLEXSolution version="1.2">
 <header
   problemName=""
   objectiveValue="5"
   solutionTypeValue="1"
   solutionTypeString="basic"
   solutionStatusValue="1"
   solutionStatusString="optimal"
   solutionMethodString="dual"
   primalFeasible="1"
   dualFeasible="1"
   simplexIterations="2"
   writeLevel="1"/>
 <quality
   epRHS="9.9999999999999995e-07"
   epOpt="9.9999999999999995e-07"
   maxPrimalInfeas="0"
   maxDualInfeas="0"
   maxPrimalResidual="1.3167245072054357e-13"
   maxDualResidual="0"
   maxX="3.0000000000000009"
   maxPi="0.25"
   maxSlack="59.250000000000078"
   maxRedCost="0"
   kappa="111953.16684896743"/>
 <linearConstraints>
  <constraint name="R0" index="0" status="BS" slack="-0.75" dual="-0"/>
  <constraint name="R4" index="1" status="BS" slack="-3.5000000000000036" dual="-0"/>
  <constraint name="R35" index="2" status="BS" slack="-0.75000000000000355" dual="-0"/>
  <constraint name="C297" index="3" status="BS" slack="-4.0000000000000009" dual="-0"/>
  <constraint name="C298" index="4" status="BS" slack="-3.0000000000000009" dual="-0"/>
  <constraint name="C299" index="5" status="BS" slack="-2.0000000000000009" dual="-0"/>
  <constraint name="C300" index="6" status="BS" slack="-2.0000000000000044" dual="-0"/>
  <constraint name="C301" index="7" status="BS" slack="-1.0000000000000042" dual="-0"/>
  <constraint name="C302" index="8" status="BS" slack="-1.0000000000000004" dual="-0"/>
  <constraint name="C303" index="9" status="BS" slack="-1.0000000000000004" dual="-0"/>
  <constraint name="C304" index="10" status="BS" slack="-4.4408920985006262e-16" dual="-0"/>
  <constraint name="C305" index="11" status="BS" slack="-2.2204460492503131e-16" dual="-0"/>
  <constraint name="C306" index="12" status="BS" slack="-2.1094237467877974e-15" dual="-0"/>
  <constraint name="C307" index="13" status="LL" slack="0" dual="0.25"/>
  <constraint name="C5" index="14" status="LL" slack="0" dual="0"/>
  <constraint name="C5" index="15" status="BS" slack="-59.250000000000078" dual="-0"/>
  <constraint name="C5" index="16" status="BS" slack="-12.750000000000011" dual="-0"/>
  <constraint name="C5" index="17" status="BS" slack="-59.250000000000014" dual="-0"/>
  <constraint name="C5" index="18" status="BS" slack="-12.750000000000032" dual="-0"/>
  <constraint name="C5" index="19" status="LL" slack="0" dual="0"/>
  <constraint name="C5" index="20" status="BS" slack="-8.8817841970012523e-16" dual="-0"/>
  <constraint name="C5" index="21" status="BS" slack="-59.250000000000043" dual="-0"/>
  <constraint name="C5" index="22" status="BS" slack="-12.750000000000043" dual="-0"/>
  <constraint name="C5" index="23" status="BS" slack="-59.250000000000028" dual="-0"/>
  <constraint name="C5" index="24" status="BS" slack="-12.750000000000064" dual="-0"/>
  <constraint name="C5" index="25" status="BS" slack="-2.1094237467877974e-15" dual="-0"/>
 </linearConstraints>
 <variables>
  <variable name="x0" index="0" status="BS" value="0.25000000000000011" reducedCost="0"/>
  <variable name="x1" index="1" status="LL" value="0" reducedCost="0"/>
  <variable name="x11" index="2" status="BS" value="1.7499999999999993" reducedCost="0"/>
  <variable name="x46" index="3" status="BS" value="3.0000000000000009" reducedCost="0"/>
  <variable name="x121" index="4" status="LL" value="0" reducedCost="0"/>
  <variable name="x251" index="5" status="LL" value="0" reducedCost="0"/>
 </variables>
 <objectiveValues>
  <objective index="0" name="" value="5"/>
 </objectiveValues>
</CPLEXSolution>
